(declare-const |K:64:65:68| Int)
(declare-const havoc Int)
(declare-const |havoc:1| Int)
(declare-const |main__x':58:66:69| Int)
(declare-const |main__y':59:67:70| Int)
(assert (and (<= (- havoc) 0) (<= (- |havoc:1|) 0)
               (or (not (<= (- |K:64:65:68|) 0))
                     (= (+ |main__x':58:66:69| |K:64:65:68| (- havoc)) 0))
               (or (not (<= (- |K:64:65:68|) 0))
                     (= (+ |main__y':59:67:70| |K:64:65:68| (- |havoc:1|)) 0))
               (or (and (= |K:64:65:68| 0)
                          (= (+ (- |main__y':59:67:70|) |havoc:1|) 0)
                          (= (+ (- |main__x':58:66:69|) havoc) 0))
                     (and (<= (+ (- |K:64:65:68|) 1) 0)
                            (<= (+ (- havoc) 1) 0)
                            (<= (- |main__x':58:66:69|) 0)))
               (<= (- |K:64:65:68|) 0) (<= (- |main__x':58:66:69|) 0)
               (<= (- |main__x':58:66:69|) 0) (<= |main__x':58:66:69| 0)
               (= (+ (- |havoc:1|) havoc) 0)
               (= (ite (= |main__y':59:67:70| 0) 1 0) 0)))
(check-sat)
